1244351
0,4,81,44,89,23,108,9,65,76,8,36,25,40,37,71,56,74,85,26,68,69,13,38,30,48,10,88,90,96,103,57,21,63,22,14,16,52,99,101,53,104,98,70,46,35,11,64,87,32,77,107,41,59,105,54,67,39,7,27,6,17,49,75,72,86,18,61,95,92,12,20,47,79,66,78,3,91,73,55,102,29,5,60,94,31,42,84,43,19,62,2,82,24,15,106,93,45,80,1,50,83,58,28,51,33,100,97,34,0